assets/logs/6_12x12_clingo/6_12x12_clingo.solution.log

-------------------------------------------------
|  0| 54| 31| 13| 55|  0| 67| 46| 59| 38| 63|  0|
-------------------------------------------------
| 58| 15|  0| 52| 33| 48| 57| 40| 65|  0| 89| 36|
-------------------------------------------------
|  0| 29| 56| 53| 11| 69| 44| 66| 87| 61|128| 10|
-------------------------------------------------
| 17| 60|  9| 35| 50| 64| 85| 71| 42| 12| 34| 91|
-------------------------------------------------
| 27| 45| 51| 62| 83|  0| 16|122| 68|126|  8|  0|
-------------------------------------------------
| 49| 19| 81|  7| 37| 24| 73| 72| 14|  0| 93| 32|
-------------------------------------------------
| 43| 25| 47| 22| 75|  5|120| 18|124| 70|  0|  6|
-------------------------------------------------
|117| 79| 21| 39|  0| 20| 26| 80| 74| 95| 30|  0|
-------------------------------------------------
| 23| 41|115| 77|  3| 82| 76|118| 28|101|  4| 97|
-------------------------------------------------
|125|119|  1|112|106|111|102| 84| 78| 88| 94|103|
-------------------------------------------------
|  0|110|123|113|  0|  0|116| 90|107| 98| 99|  2|
-------------------------------------------------
|121|127|  0|108|114|104|109|100| 86| 92|105| 96|
-------------------------------------------------

| n = 12 | k = 9 | coverage = 136, 94.44444444444444%
 Time 300.002
 Name 6_12x12_clingo

