assets/logs/6_12x12_clingo/6_12x12_clingo.log
clingo version 5.4.0
Reading from ...ts/logs/6_12x12_clingo/knights_tour.lp ...
Solving...
Answer: 1
occ(1,11,5) occ(1,5,6) occ(1,8,5) occ(1,7,11) occ(1,11,6) occ(1,6,10) occ(1,1,6) occ(1,2,3) occ(1,1,1) occ(2,10,3) occ(3,11,12) coverage(6)
Optimization: -6
Answer: 2
occ(1,11,5) occ(1,5,6) occ(1,8,5) occ(1,7,11) occ(1,11,6) occ(1,6,10) occ(1,1,6) occ(1,2,3) occ(1,1,1) occ(2,10,3) occ(3,11,12) coverage(7) occ(4,9,1) occ(6,11,2)
Optimization: -7
Answer: 3
occ(1,11,5) occ(1,5,6) occ(1,8,5) occ(1,7,11) occ(1,11,6) occ(1,6,10) occ(1,1,6) occ(1,2,3) occ(1,1,1) occ(2,10,3) occ(3,11,12) coverage(94) occ(23,1,4) occ(27,1,8) occ(31,1,12) occ(42,1,10) occ(48,1,9) occ(52,1,5) occ(56,1,7) occ(60,1,11) occ(103,1,2) occ(21,2,2) occ(25,2,6) occ(29,2,10) occ(40,2,8) occ(46,2,11) occ(50,2,7) occ(58,2,9) occ(99,2,5) occ(12,3,5) occ(26,3,8) occ(33,3,11) occ(38,3,10) occ(44,3,9) occ(54,3,6) occ(62,3,12) occ(63,3,4) occ(97,3,7) occ(101,3,3) occ(105,3,1) occ(14,4,3) occ(19,4,1) occ(28,4,10) occ(36,4,8) occ(39,4,9) occ(61,4,6) occ(65,4,2) occ(92,4,4) occ(95,4,5) occ(10,5,4) occ(16,5,5) occ(24,5,9) occ(35,5,10) occ(41,5,7) occ(59,5,8) occ(64,5,11) occ(93,5,3) occ(107,5,2) occ(8,6,6) occ(17,6,2) occ(30,6,9) occ(34,6,7) occ(37,6,8) occ(43,6,5) occ(67,6,1) occ(90,6,3) occ(129,6,4) occ(13,7,5) occ(18,7,6) occ(22,7,8) occ(45,7,7) occ(57,7,9) occ(66,7,12) occ(69,7,3) occ(91,7,4) occ(109,7,1) occ(127,7,2) occ(6,8,7) occ(15,8,3) occ(32,8,8) occ(47,8,9) occ(81,8,10) occ(82,8,1) occ(88,8,2) occ(89,8,6) occ(125,8,4) occ(4,9,5) occ(11,9,6) occ(20,9,7) occ(55,9,10) occ(68,9,11) occ(71,9,4) occ(72,9,9) occ(83,9,12) occ(84,9,3) occ(87,9,8) occ(111,9,2) occ(7,10,9) occ(49,10,8) occ(73,10,6) occ(74,10,7) occ(79,10,11) occ(80,10,2) occ(85,10,10) occ(86,10,1) occ(117,10,4) occ(123,10,5) occ(9,11,7) occ(53,11,11) occ(70,11,10) occ(77,11,9) occ(78,11,4) occ(113,11,3) occ(119,11,2) occ(5,12,10) occ(51,12,9) occ(75,12,7) occ(76,12,6) occ(115,12,5) occ(121,12,4)
Optimization: -94
Answer: 4
occ(1,11,5) occ(1,5,6) occ(1,8,5) occ(1,7,11) occ(1,11,6) occ(1,6,10) occ(1,1,6) occ(1,2,3) occ(1,1,1) occ(2,10,3) occ(3,11,12) coverage(96) occ(23,1,4) occ(27,1,8) occ(31,1,12) occ(42,1,10) occ(48,1,9) occ(52,1,5) occ(56,1,7) occ(60,1,11) occ(103,1,2) occ(21,2,2) occ(25,2,6) occ(29,2,10) occ(40,2,8) occ(46,2,11) occ(50,2,7) occ(58,2,9) occ(99,2,5) occ(12,3,5) occ(26,3,8) occ(33,3,11) occ(38,3,10) occ(44,3,9) occ(54,3,6) occ(62,3,12) occ(63,3,4) occ(94,3,2) occ(97,3,7) occ(101,3,3) occ(105,3,1) occ(14,4,3) occ(19,4,1) occ(28,4,10) occ(36,4,8) occ(39,4,9) occ(61,4,6) occ(65,4,2) occ(92,4,4) occ(95,4,5) occ(10,5,4) occ(16,5,5) occ(24,5,9) occ(35,5,10) occ(41,5,7) occ(59,5,8) occ(64,5,11) occ(93,5,3) occ(107,5,2) occ(8,6,6) occ(17,6,2) occ(30,6,9) occ(34,6,7) occ(37,6,8) occ(43,6,5) occ(67,6,1) occ(90,6,3) occ(129,6,4) occ(13,7,5) occ(18,7,6) occ(22,7,8) occ(45,7,7) occ(57,7,9) occ(66,7,12) occ(69,7,3) occ(91,7,4) occ(109,7,1) occ(127,7,2) occ(6,8,7) occ(15,8,3) occ(32,8,8) occ(47,8,9) occ(81,8,10) occ(82,8,1) occ(88,8,2) occ(89,8,6) occ(125,8,4) occ(4,9,5) occ(11,9,6) occ(20,9,7) occ(55,9,10) occ(68,9,11) occ(71,9,4) occ(72,9,9) occ(83,9,12) occ(84,9,3) occ(87,9,8) occ(111,9,2) occ(7,10,9) occ(49,10,8) occ(73,10,6) occ(74,10,7) occ(79,10,11) occ(80,10,2) occ(85,10,10) occ(86,10,1) occ(117,10,4) occ(123,10,5) occ(9,11,7) occ(53,11,11) occ(70,11,10) occ(77,11,9) occ(78,11,4) occ(113,11,3) occ(119,11,2) occ(5,12,10) occ(51,12,9) occ(75,12,7) occ(76,12,6) occ(115,12,5) occ(121,12,4)
Optimization: -96
Answer: 5
occ(1,11,5) occ(1,5,6) occ(1,8,5) occ(1,7,11) occ(1,11,6) occ(1,6,10) occ(1,1,6) occ(1,2,3) occ(1,1,1) occ(2,10,3) occ(3,11,12) coverage(98) occ(23,1,4) occ(27,1,8) occ(31,1,12) occ(42,1,10) occ(48,1,9) occ(52,1,5) occ(56,1,7) occ(60,1,11) occ(103,1,2) occ(21,2,2) occ(25,2,6) occ(29,2,10) occ(40,2,8) occ(46,2,11) occ(50,2,7) occ(58,2,9) occ(99,2,5) occ(12,3,5) occ(26,3,8) occ(33,3,11) occ(38,3,10) occ(44,3,9) occ(54,3,6) occ(62,3,12) occ(63,3,4) occ(94,3,2) occ(97,3,7) occ(101,3,3) occ(105,3,1) occ(14,4,3) occ(19,4,1) occ(28,4,10) occ(36,4,8) occ(39,4,9) occ(61,4,6) occ(65,4,2) occ(92,4,4) occ(95,4,5) occ(10,5,4) occ(16,5,5) occ(24,5,9) occ(35,5,10) occ(41,5,7) occ(59,5,8) occ(64,5,11) occ(93,5,3) occ(96,5,1) occ(107,5,2) occ(8,6,6) occ(17,6,2) occ(30,6,9) occ(34,6,7) occ(37,6,8) occ(43,6,5) occ(67,6,1) occ(90,6,3) occ(129,6,4) occ(13,7,5) occ(18,7,6) occ(22,7,8) occ(45,7,7) occ(57,7,9) occ(66,7,12) occ(69,7,3) occ(91,7,4) occ(109,7,1) occ(127,7,2) occ(6,8,7) occ(15,8,3) occ(32,8,8) occ(47,8,9) occ(81,8,10) occ(82,8,1) occ(88,8,2) occ(89,8,6) occ(125,8,4) occ(4,9,5) occ(11,9,6) occ(20,9,7) occ(55,9,10) occ(68,9,11) occ(71,9,4) occ(72,9,9) occ(83,9,12) occ(84,9,3) occ(87,9,8) occ(111,9,2) occ(7,10,9) occ(49,10,8) occ(73,10,6) occ(74,10,7) occ(79,10,11) occ(80,10,2) occ(85,10,10) occ(86,10,1) occ(117,10,4) occ(123,10,5) occ(9,11,7) occ(53,11,11) occ(70,11,10) occ(77,11,9) occ(78,11,4) occ(113,11,3) occ(119,11,2) occ(5,12,10) occ(51,12,9) occ(75,12,7) occ(76,12,6) occ(115,12,5) occ(121,12,4)
Optimization: -98
Answer: 6
occ(1,11,5) occ(1,5,6) occ(1,8,5) occ(1,7,11) occ(1,11,6) occ(1,6,10) occ(1,1,6) occ(1,2,3) occ(1,1,1) occ(2,10,3) occ(3,11,12) coverage(100) occ(23,1,4) occ(27,1,8) occ(31,1,12) occ(42,1,10) occ(48,1,9) occ(52,1,5) occ(56,1,7) occ(60,1,11) occ(96,1,3) occ(103,1,2) occ(21,2,2) occ(25,2,6) occ(29,2,10) occ(40,2,8) occ(46,2,11) occ(50,2,7) occ(58,2,9) occ(98,2,1) occ(99,2,5) occ(12,3,5) occ(26,3,8) occ(33,3,11) occ(38,3,10) occ(44,3,9) occ(54,3,6) occ(62,3,12) occ(63,3,4) occ(94,3,2) occ(97,3,7) occ(101,3,3) occ(105,3,1) occ(14,4,3) occ(19,4,1) occ(28,4,10) occ(36,4,8) occ(39,4,9) occ(61,4,6) occ(65,4,2) occ(92,4,4) occ(95,4,5) occ(10,5,4) occ(16,5,5) occ(24,5,9) occ(35,5,10) occ(41,5,7) occ(59,5,8) occ(64,5,11) occ(93,5,3) occ(107,5,2) occ(8,6,6) occ(17,6,2) occ(30,6,9) occ(34,6,7) occ(37,6,8) occ(43,6,5) occ(67,6,1) occ(90,6,3) occ(129,6,4) occ(13,7,5) occ(18,7,6) occ(22,7,8) occ(45,7,7) occ(57,7,9) occ(66,7,12) occ(69,7,3) occ(91,7,4) occ(109,7,1) occ(127,7,2) occ(6,8,7) occ(15,8,3) occ(32,8,8) occ(47,8,9) occ(81,8,10) occ(82,8,1) occ(88,8,2) occ(89,8,6) occ(125,8,4) occ(4,9,5) occ(11,9,6) occ(20,9,7) occ(55,9,10) occ(68,9,11) occ(71,9,4) occ(72,9,9) occ(83,9,12) occ(84,9,3) occ(87,9,8) occ(111,9,2) occ(7,10,9) occ(49,10,8) occ(73,10,6) occ(74,10,7) occ(79,10,11) occ(80,10,2) occ(85,10,10) occ(86,10,1) occ(117,10,4) occ(123,10,5) occ(9,11,7) occ(53,11,11) occ(70,11,10) occ(77,11,9) occ(78,11,4) occ(113,11,3) occ(119,11,2) occ(5,12,10) occ(51,12,9) occ(75,12,7) occ(76,12,6) occ(115,12,5) occ(121,12,4)
Optimization: -100
Answer: 7
occ(1,11,5) occ(1,5,6) occ(1,8,5) occ(1,7,11) occ(1,11,6) occ(1,6,10) occ(1,1,6) occ(1,2,3) occ(1,1,1) occ(2,10,3) occ(3,11,12) coverage(102) occ(23,1,4) occ(27,1,8) occ(31,1,12) occ(42,1,10) occ(48,1,9) occ(52,1,5) occ(56,1,7) occ(60,1,11) occ(98,1,2) occ(21,2,2) occ(25,2,6) occ(29,2,10) occ(40,2,8) occ(46,2,11) occ(50,2,7) occ(58,2,9) occ(96,2,4) occ(99,2,5) occ(12,3,5) occ(26,3,8) occ(33,3,11) occ(38,3,10) occ(44,3,9) occ(54,3,6) occ(62,3,12) occ(63,3,4) occ(94,3,2) occ(97,3,7) occ(100,3,1) occ(101,3,3) occ(14,4,3) occ(19,4,1) occ(28,4,10) occ(36,4,8) occ(39,4,9) occ(61,4,6) occ(65,4,2) occ(92,4,4) occ(95,4,5) occ(10,5,4) occ(16,5,5) occ(24,5,9) occ(35,5,10) occ(41,5,7) occ(59,5,8) occ(64,5,11) occ(93,5,3) occ(103,5,2) occ(8,6,6) occ(17,6,2) occ(30,6,9) occ(34,6,7) occ(37,6,8) occ(43,6,5) occ(67,6,1) occ(90,6,3) occ(129,6,4) occ(13,7,5) occ(18,7,6) occ(22,7,8) occ(45,7,7) occ(57,7,9) occ(66,7,12) occ(69,7,3) occ(70,7,10) occ(91,7,4) occ(105,7,1) occ(127,7,2) occ(6,8,7) occ(15,8,3) occ(32,8,8) occ(47,8,9) occ(81,8,10) occ(88,8,2) occ(89,8,6) occ(109,8,4) occ(123,8,1) occ(4,9,5) occ(11,9,6) occ(20,9,7) occ(55,9,10) occ(68,9,11) occ(71,9,4) occ(72,9,9) occ(83,9,12) occ(87,9,8) occ(107,9,2) occ(125,9,3) occ(7,10,9) occ(49,10,8) occ(73,10,6) occ(78,10,7) occ(79,10,11) occ(85,10,10) occ(86,10,1) occ(111,10,5) occ(117,10,4) occ(121,10,2) occ(9,11,7) occ(53,11,11) occ(74,11,10) occ(77,11,9) occ(82,11,4) occ(113,11,3) occ(5,12,10) occ(51,12,9) occ(75,12,7) occ(76,12,8) occ(80,12,6) occ(84,12,2) occ(115,12,5) occ(119,12,3)
Optimization: -102
Answer: 8
occ(1,11,5) occ(1,5,6) occ(1,8,5) occ(1,7,11) occ(1,11,6) occ(1,6,10) occ(1,1,6) occ(1,2,3) occ(1,1,1) occ(2,10,3) occ(3,11,12) coverage(115) occ(25,1,3) occ(26,1,8) occ(46,1,4) occ(95,1,2) occ(104,1,9) occ(110,1,10) occ(116,1,11) occ(23,2,5) occ(24,2,6) occ(28,2,10) occ(32,2,12) occ(48,2,2) occ(89,2,4) occ(102,2,11) occ(106,2,7) occ(114,2,9) occ(18,3,4) occ(21,3,7) occ(22,3,8) occ(27,3,2) occ(34,3,10) occ(44,3,5) occ(87,3,6) occ(93,3,1) occ(97,3,3) occ(108,3,9) occ(112,3,11) occ(118,3,12) occ(16,4,2) occ(19,4,5) occ(20,4,6) occ(30,4,11) occ(38,4,9) occ(42,4,7) occ(50,4,1) occ(81,4,8) occ(91,4,3) occ(100,4,10) occ(8,5,7) occ(12,5,3) occ(29,5,1) occ(36,5,11) occ(85,5,5) occ(86,5,10) occ(96,5,9) occ(99,5,2) occ(107,5,4) occ(10,6,5) occ(14,6,1) occ(17,6,4) occ(40,6,8) occ(45,6,6) occ(52,6,2) occ(79,6,9) occ(83,6,7) occ(88,6,12) occ(98,6,11) occ(103,6,3) occ(6,7,6) occ(31,7,2) occ(43,7,4) occ(67,7,12) occ(77,7,7) occ(84,7,9) occ(90,7,10) occ(94,7,8) occ(101,7,1) occ(105,7,5) occ(109,7,3) occ(4,8,4) occ(15,8,3) occ(41,8,2) occ(47,8,7) occ(54,8,1) occ(57,8,12) occ(69,8,10) occ(75,8,9) occ(82,8,11) occ(113,8,6) occ(13,9,5) occ(33,9,3) occ(55,9,10) occ(65,9,11) occ(66,9,8) occ(71,9,12) occ(92,9,9) occ(111,9,4) occ(35,10,5) occ(39,10,1) occ(49,10,8) occ(56,10,2) occ(59,10,11) occ(60,10,4) occ(64,10,6) occ(70,10,9) occ(73,10,10) occ(74,10,7) occ(80,10,12) occ(7,11,8) occ(11,11,4) occ(37,11,3) occ(53,11,11) occ(63,11,10) occ(68,11,7) occ(76,11,9) occ(5,12,10) occ(9,12,6) occ(51,12,9) occ(58,12,3) occ(61,12,12) occ(62,12,5) occ(72,12,8) occ(78,12,11)
Optimization: -115
Answer: 9
occ(1,11,5) occ(1,5,6) occ(1,8,5) occ(1,7,11) occ(1,11,6) occ(1,6,10) occ(1,1,6) occ(1,2,3) occ(1,1,1) occ(2,10,3) occ(3,11,12) coverage(116) occ(25,1,3) occ(26,1,8) occ(46,1,4) occ(95,1,2) occ(102,1,10) occ(112,1,11) occ(23,2,5) occ(24,2,6) occ(28,2,10) occ(32,2,12) occ(48,2,2) occ(89,2,4) occ(98,2,11) occ(114,2,9) occ(18,3,4) occ(21,3,7) occ(22,3,8) occ(27,3,2) occ(34,3,10) occ(44,3,5) occ(87,3,6) occ(93,3,1) occ(97,3,3) occ(100,3,9) occ(104,3,11) occ(110,3,12) occ(16,4,2) occ(19,4,5) occ(20,4,6) occ(30,4,11) occ(38,4,9) occ(42,4,7) occ(50,4,1) occ(81,4,8) occ(91,4,3) occ(96,4,12) occ(108,4,10) occ(8,5,7) occ(12,5,3) occ(29,5,1) occ(36,5,11) occ(85,5,5) occ(86,5,10) occ(92,5,9) occ(99,5,2) occ(106,5,12) occ(107,5,4) occ(10,6,5) occ(14,6,1) occ(17,6,4) occ(40,6,8) occ(45,6,6) occ(52,6,2) occ(79,6,9) occ(83,6,7) occ(88,6,12) occ(94,6,11) occ(103,6,3) occ(6,7,6) occ(31,7,2) occ(43,7,4) occ(67,7,12) occ(77,7,7) occ(84,7,9) occ(90,7,10) occ(101,7,1) occ(105,7,5) occ(109,7,3) occ(115,7,8) occ(4,8,4) occ(15,8,3) occ(41,8,2) occ(47,8,7) occ(54,8,1) occ(57,8,12) occ(69,8,10) occ(75,8,9) occ(82,8,11) occ(113,8,6) occ(13,9,5) occ(33,9,3) occ(55,9,10) occ(65,9,11) occ(66,9,8) occ(71,9,12) occ(111,9,4) occ(35,10,5) occ(39,10,1) occ(49,10,8) occ(56,10,2) occ(59,10,11) occ(60,10,4) occ(64,10,6) occ(70,10,9) occ(73,10,10) occ(74,10,7) occ(80,10,12) occ(7,11,8) occ(11,11,4) occ(37,11,3) occ(53,11,11) occ(63,11,10) occ(68,11,7) occ(76,11,9) occ(5,12,10) occ(9,12,6) occ(51,12,9) occ(58,12,3) occ(61,12,12) occ(62,12,5) occ(72,12,8) occ(78,12,11)
Optimization: -116
Answer: 10
occ(1,11,5) occ(1,5,6) occ(1,8,5) occ(1,7,11) occ(1,11,6) occ(1,6,10) occ(1,1,6) occ(1,2,3) occ(1,1,1) occ(2,10,3) occ(3,11,12) coverage(120) occ(17,1,9) occ(23,1,4) occ(33,1,3) occ(34,1,10) occ(37,1,7) occ(41,1,11) occ(47,1,12) occ(98,1,2) occ(21,2,6) occ(27,2,1) occ(32,2,12) occ(35,2,5) occ(39,2,9) occ(45,2,10) occ(96,2,4) occ(110,2,7) occ(15,3,10) occ(16,3,7) occ(19,3,8) occ(25,3,3) occ(31,3,4) occ(36,3,9) occ(43,3,12) occ(49,3,11) occ(100,3,1) occ(108,3,5) occ(114,3,6) occ(14,4,5) occ(20,4,6) occ(29,4,2) occ(30,4,11) occ(53,4,10) occ(87,4,9) occ(90,4,7) occ(94,4,3) occ(112,4,8) occ(116,4,4) occ(12,5,3) occ(13,5,11) occ(18,5,8) occ(28,5,9) occ(38,5,10) occ(51,5,12) occ(77,5,1) occ(89,5,7) occ(92,5,5) occ(102,5,2) occ(106,5,4) occ(22,6,7) occ(26,6,11) occ(40,6,12) occ(55,6,9) occ(75,6,3) occ(81,6,4) occ(85,6,8) occ(88,6,6) occ(118,6,5) occ(10,7,4) occ(11,7,12) occ(24,7,9) occ(42,7,10) occ(57,7,7) occ(73,7,5) occ(79,7,2) occ(80,7,1) occ(83,7,6) occ(91,7,8) occ(104,7,3) occ(9,8,10) occ(56,8,6) occ(59,8,9) occ(69,8,8) occ(82,8,3) occ(86,8,7) occ(95,8,11) occ(113,8,12) occ(7,9,12) occ(8,9,3) occ(44,9,11) occ(54,9,4) occ(58,9,8) occ(61,9,7) occ(71,9,6) occ(78,9,2) occ(84,9,5) occ(93,9,9) occ(115,9,10) occ(5,10,10) occ(46,10,9) occ(52,10,6) occ(63,10,5) occ(64,10,4) occ(67,10,7) occ(68,10,2) occ(74,10,1) occ(97,10,12) occ(105,10,8) occ(111,10,11) occ(6,11,2) occ(50,11,8) occ(60,11,7) occ(70,11,4) occ(76,11,3) occ(101,11,9) occ(107,11,10) occ(117,11,11) occ(4,12,4) occ(48,12,10) occ(62,12,5) occ(65,12,6) occ(66,12,3) occ(72,12,2) occ(99,12,11) occ(103,12,7) occ(109,12,12) occ(119,12,9)
Optimization: -120
Answer: 11
occ(1,11,5) occ(1,5,6) occ(1,8,5) occ(1,7,11) occ(1,11,6) occ(1,6,10) occ(1,1,6) occ(1,2,3) occ(1,1,1) occ(2,10,3) occ(3,11,12) coverage(121) occ(17,1,9) occ(23,1,4) occ(33,1,3) occ(34,1,10) occ(37,1,7) occ(41,1,11) occ(47,1,12) occ(98,1,2) occ(21,2,6) occ(27,2,1) occ(32,2,12) occ(35,2,5) occ(39,2,9) occ(45,2,10) occ(96,2,4) occ(110,2,7) occ(15,3,10) occ(16,3,7) occ(19,3,8) occ(25,3,3) occ(31,3,4) occ(36,3,9) occ(43,3,12) occ(49,3,11) occ(100,3,1) occ(108,3,5) occ(114,3,6) occ(14,4,5) occ(20,4,6) occ(29,4,2) occ(30,4,11) occ(53,4,10) occ(87,4,9) occ(90,4,7) occ(94,4,3) occ(112,4,8) occ(116,4,4) occ(12,5,3) occ(13,5,11) occ(18,5,8) occ(28,5,9) occ(38,5,10) occ(51,5,12) occ(77,5,1) occ(89,5,7) occ(92,5,5) occ(102,5,2) occ(106,5,4) occ(22,6,7) occ(26,6,11) occ(40,6,12) occ(55,6,9) occ(75,6,3) occ(81,6,4) occ(85,6,8) occ(88,6,6) occ(118,6,5) occ(10,7,4) occ(11,7,12) occ(24,7,9) occ(42,7,10) occ(57,7,7) occ(73,7,5) occ(79,7,2) occ(80,7,1) occ(83,7,6) occ(91,7,8) occ(104,7,3) occ(9,8,10) occ(56,8,6) occ(59,8,9) occ(69,8,8) occ(82,8,3) occ(86,8,7) occ(95,8,11) occ(113,8,12) occ(120,8,4) occ(7,9,12) occ(8,9,3) occ(44,9,11) occ(54,9,4) occ(58,9,8) occ(61,9,7) occ(71,9,6) occ(78,9,2) occ(84,9,5) occ(93,9,9) occ(115,9,10) occ(5,10,10) occ(46,10,9) occ(52,10,6) occ(63,10,5) occ(64,10,4) occ(67,10,7) occ(68,10,2) occ(74,10,1) occ(97,10,12) occ(105,10,8) occ(111,10,11) occ(6,11,2) occ(50,11,8) occ(60,11,7) occ(70,11,4) occ(76,11,3) occ(101,11,9) occ(107,11,10) occ(117,11,11) occ(4,12,4) occ(48,12,10) occ(62,12,5) occ(65,12,6) occ(66,12,3) occ(72,12,2) occ(99,12,11) occ(103,12,7) occ(109,12,12) occ(119,12,9)
Optimization: -121
Answer: 12
occ(1,11,5) occ(1,5,6) occ(1,8,5) occ(1,7,11) occ(1,11,6) occ(1,6,10) occ(1,1,6) occ(1,2,3) occ(1,1,1) occ(2,10,3) occ(3,11,12) coverage(122) occ(17,1,9) occ(23,1,4) occ(33,1,3) occ(34,1,10) occ(37,1,7) occ(41,1,11) occ(47,1,12) occ(98,1,2) occ(21,2,6) occ(27,2,1) occ(32,2,12) occ(35,2,5) occ(39,2,9) occ(45,2,10) occ(96,2,4) occ(110,2,7) occ(10,3,2) occ(15,3,10) occ(16,3,7) occ(19,3,8) occ(25,3,3) occ(31,3,4) occ(36,3,9) occ(43,3,12) occ(49,3,11) occ(100,3,1) occ(108,3,5) occ(114,3,6) occ(14,4,5) occ(20,4,6) occ(29,4,2) occ(30,4,11) occ(53,4,10) occ(62,4,7) occ(87,4,9) occ(94,4,3) occ(112,4,8) occ(116,4,4) occ(8,5,1) occ(12,5,3) occ(13,5,11) occ(18,5,8) occ(28,5,9) occ(38,5,10) occ(51,5,12) occ(60,5,5) occ(89,5,7) occ(102,5,2) occ(106,5,4) occ(6,6,3) occ(22,6,7) occ(26,6,11) occ(40,6,12) occ(55,6,9) occ(64,6,6) occ(81,6,4) occ(85,6,8) occ(92,6,2) occ(118,6,5) occ(11,7,12) occ(24,7,9) occ(42,7,10) occ(57,7,7) occ(58,7,4) occ(73,7,5) occ(79,7,2) occ(83,7,6) occ(91,7,8) occ(104,7,3) occ(4,8,2) occ(9,8,10) occ(56,8,6) occ(59,8,9) occ(66,8,7) occ(69,8,8) occ(75,8,3) occ(90,8,1) occ(95,8,11) occ(113,8,12) occ(120,8,4) occ(7,9,12) occ(44,9,11) occ(54,9,4) occ(61,9,7) occ(68,9,5) occ(71,9,6) occ(77,9,1) occ(82,9,2) occ(93,9,9) occ(115,9,10) occ(5,10,10) occ(46,10,9) occ(52,10,6) occ(63,10,5) occ(67,10,7) occ(74,10,1) occ(80,10,4) occ(88,10,2) occ(97,10,12) occ(105,10,8) occ(111,10,11) occ(50,11,8) occ(70,11,4) occ(76,11,3) occ(84,11,1) occ(101,11,9) occ(107,11,10) occ(117,11,11) occ(121,11,7) occ(48,12,10) occ(65,12,6) occ(72,12,2) occ(78,12,5) occ(86,12,3) occ(99,12,11) occ(103,12,7) occ(109,12,12) occ(119,12,9)
Optimization: -122
Answer: 13
occ(1,11,5) occ(1,5,6) occ(1,8,5) occ(1,7,11) occ(1,11,6) occ(1,6,10) occ(1,1,6) occ(1,2,3) occ(1,1,1) occ(2,10,3) occ(3,11,12) coverage(123) occ(21,1,11) occ(27,1,8) occ(66,1,4) occ(87,1,2) occ(90,1,10) occ(101,1,9) occ(109,1,7) occ(15,2,11) occ(25,2,10) occ(29,2,6) occ(64,2,2) occ(65,2,4) occ(83,2,5) occ(92,2,12) occ(103,2,7) occ(107,2,9) occ(113,2,8) occ(19,3,10) occ(23,3,12) occ(31,3,4) occ(67,3,2) occ(68,3,5) occ(85,3,3) occ(88,3,11) occ(89,3,1) occ(99,3,8) occ(111,3,6) occ(117,3,7) occ(121,3,9) occ(13,4,10) occ(17,4,12) occ(22,4,7) occ(33,4,2) occ(62,4,1) occ(63,4,5) occ(75,4,3) occ(81,4,6) occ(94,4,11) occ(105,4,8) occ(115,4,9) occ(9,5,11) occ(20,5,9) occ(60,5,3) occ(69,5,1) occ(70,5,4) occ(77,5,5) occ(86,5,10) occ(91,5,2) occ(97,5,7) occ(119,5,8) occ(11,6,9) occ(18,6,11) occ(24,6,8) occ(35,6,1) occ(42,6,3) occ(61,6,6) occ(72,6,2) occ(73,6,4) occ(79,6,7) occ(95,6,5) occ(96,6,12) occ(7,7,12) occ(28,7,7) occ(40,7,1) occ(44,7,5) occ(55,7,6) occ(58,7,4) occ(59,7,8) occ(71,7,2) occ(84,7,9) occ(93,7,3) occ(16,8,10) occ(26,8,9) occ(37,8,2) occ(46,8,7) occ(53,8,8) occ(74,8,3) occ(80,8,6) occ(98,8,11) occ(122,8,1) occ(5,9,11) occ(30,9,6) occ(38,9,2) occ(48,9,9) occ(51,9,10) occ(56,9,5) occ(57,9,7) occ(78,9,4) occ(82,9,8) occ(106,9,12) occ(120,9,3) occ(14,10,9) occ(32,10,4) occ(39,10,1) occ(45,10,6) occ(49,10,8) occ(54,10,7) occ(76,10,2) occ(100,10,12) occ(104,10,10) occ(114,10,5) occ(6,11,4) occ(10,11,8) occ(36,11,1) occ(41,11,3) occ(50,11,10) occ(108,11,11) occ(112,11,7) occ(118,11,2) occ(4,12,2) occ(8,12,6) occ(12,12,10) occ(34,12,3) occ(43,12,5) occ(47,12,7) occ(52,12,8) occ(102,12,11) occ(110,12,9) occ(116,12,4)
Optimization: -123
Answer: 14
occ(1,11,5) occ(1,5,6) occ(1,8,5) occ(1,7,11) occ(1,11,6) occ(1,6,10) occ(1,1,6) occ(1,2,3) occ(1,1,1) occ(2,10,3) occ(3,11,12) coverage(124) occ(21,1,11) occ(27,1,8) occ(66,1,4) occ(90,1,10) occ(95,1,2) occ(101,1,3) occ(105,1,7) occ(15,2,11) occ(25,2,10) occ(29,2,6) occ(64,2,2) occ(65,2,4) occ(92,2,12) occ(99,2,1) occ(103,2,5) occ(107,2,9) occ(113,2,8) occ(123,2,7) occ(19,3,10) occ(23,3,12) occ(31,3,4) occ(67,3,2) occ(68,3,5) occ(83,3,8) occ(88,3,11) occ(93,3,1) occ(97,3,3) occ(111,3,6) occ(117,3,7) occ(121,3,9) occ(13,4,10) occ(17,4,12) occ(22,4,7) occ(33,4,2) occ(62,4,1) occ(63,4,5) occ(75,4,3) occ(81,4,6) occ(89,4,4) occ(94,4,11) occ(109,4,8) occ(115,4,9) occ(9,5,11) occ(20,5,9) occ(60,5,3) occ(69,5,1) occ(70,5,4) occ(77,5,5) occ(85,5,7) occ(86,5,10) occ(91,5,2) occ(119,5,8) occ(11,6,9) occ(18,6,11) occ(24,6,8) occ(35,6,1) occ(42,6,3) occ(61,6,6) occ(72,6,2) occ(73,6,4) occ(79,6,7) occ(87,6,5) occ(96,6,12) occ(7,7,12) occ(28,7,7) occ(40,7,1) occ(44,7,5) occ(55,7,6) occ(58,7,4) occ(59,7,8) occ(71,7,2) occ(84,7,9) occ(16,8,10) occ(26,8,9) occ(37,8,2) occ(46,8,7) occ(53,8,8) occ(74,8,3) occ(80,8,6) occ(98,8,11) occ(122,8,1) occ(5,9,11) occ(30,9,6) occ(38,9,2) occ(48,9,9) occ(51,9,10) occ(56,9,5) occ(57,9,7) occ(78,9,4) occ(82,9,8) occ(106,9,12) occ(120,9,3) occ(14,10,9) occ(32,10,4) occ(39,10,1) occ(45,10,6) occ(49,10,8) occ(54,10,7) occ(76,10,2) occ(100,10,12) occ(104,10,10) occ(114,10,5) occ(6,11,4) occ(10,11,8) occ(36,11,1) occ(41,11,3) occ(50,11,10) occ(108,11,11) occ(112,11,7) occ(118,11,2) occ(4,12,2) occ(8,12,6) occ(12,12,10) occ(34,12,3) occ(43,12,5) occ(47,12,7) occ(52,12,8) occ(102,12,11) occ(110,12,9) occ(116,12,4)
Optimization: -124
Answer: 15
occ(1,11,5) occ(1,5,6) occ(1,8,5) occ(1,7,11) occ(1,11,6) occ(1,6,10) occ(1,1,6) occ(1,2,3) occ(1,1,1) occ(2,10,3) occ(3,11,12) coverage(126) occ(21,1,11) occ(27,1,8) occ(66,1,4) occ(90,1,10) occ(95,1,2) occ(101,1,3) occ(105,1,7) occ(125,1,5) occ(15,2,11) occ(25,2,10) occ(29,2,6) occ(64,2,2) occ(65,2,4) occ(92,2,12) occ(99,2,1) occ(103,2,5) occ(107,2,9) occ(113,2,8) occ(123,2,7) occ(19,3,10) occ(23,3,12) occ(31,3,4) occ(67,3,2) occ(68,3,5) occ(83,3,8) occ(88,3,11) occ(93,3,1) occ(97,3,3) occ(111,3,6) occ(117,3,7) occ(121,3,9) occ(13,4,10) occ(17,4,12) occ(22,4,7) occ(33,4,2) occ(62,4,1) occ(63,4,5) occ(75,4,3) occ(81,4,6) occ(89,4,4) occ(94,4,11) occ(109,4,8) occ(115,4,9) occ(9,5,11) occ(20,5,9) occ(60,5,3) occ(69,5,1) occ(70,5,4) occ(77,5,5) occ(85,5,7) occ(86,5,10) occ(91,5,2) occ(119,5,8) occ(11,6,9) occ(18,6,11) occ(24,6,8) occ(35,6,1) occ(42,6,3) occ(61,6,6) occ(72,6,2) occ(73,6,4) occ(79,6,7) occ(87,6,5) occ(96,6,12) occ(7,7,12) occ(28,7,7) occ(40,7,1) occ(44,7,5) occ(55,7,6) occ(58,7,4) occ(59,7,8) occ(71,7,2) occ(84,7,9) occ(124,7,3) occ(16,8,10) occ(26,8,9) occ(37,8,2) occ(46,8,7) occ(53,8,8) occ(74,8,3) occ(80,8,6) occ(98,8,11) occ(122,8,1) occ(5,9,11) occ(30,9,6) occ(38,9,2) occ(48,9,9) occ(51,9,10) occ(56,9,5) occ(57,9,7) occ(78,9,4) occ(82,9,8) occ(106,9,12) occ(120,9,3) occ(14,10,9) occ(32,10,4) occ(39,10,1) occ(45,10,6) occ(49,10,8) occ(54,10,7) occ(76,10,2) occ(100,10,12) occ(104,10,10) occ(114,10,5) occ(6,11,4) occ(10,11,8) occ(36,11,1) occ(41,11,3) occ(50,11,10) occ(108,11,11) occ(112,11,7) occ(118,11,2) occ(4,12,2) occ(8,12,6) occ(12,12,10) occ(34,12,3) occ(43,12,5) occ(47,12,7) occ(52,12,8) occ(102,12,11) occ(110,12,9) occ(116,12,4)
Optimization: -126
Answer: 16
occ(1,11,5) occ(1,5,6) occ(1,8,5) occ(1,7,11) occ(1,11,6) occ(1,6,10) occ(1,1,6) occ(1,2,3) occ(1,1,1) occ(2,10,3) occ(3,11,12) coverage(127) occ(29,1,3) occ(35,1,2) occ(68,1,5) occ(72,1,9) occ(76,1,7) occ(84,1,11) occ(94,1,10) occ(99,1,4) occ(25,2,6) occ(33,2,4) occ(39,2,1) occ(70,2,7) occ(78,2,5) occ(82,2,9) occ(88,2,10) occ(92,2,8) occ(101,2,2) occ(126,2,11) occ(21,3,9) occ(27,3,4) occ(31,3,2) occ(37,3,3) occ(66,3,6) occ(74,3,8) occ(80,3,7) occ(86,3,12) occ(96,3,11) occ(97,3,5) occ(122,3,10) occ(17,4,8) occ(22,4,5) occ(23,4,7) occ(34,4,11) occ(41,4,2) occ(64,4,4) occ(90,4,9) occ(95,4,3) occ(100,4,10) occ(103,4,1) occ(124,4,12) occ(19,5,10) occ(28,5,7) occ(32,5,9) occ(45,5,5) occ(54,5,4) occ(62,5,2) occ(71,5,8) occ(93,5,1) occ(98,5,12) occ(105,5,3) occ(120,5,11) occ(15,6,9) occ(20,6,6) occ(24,6,4) occ(36,6,12) occ(43,6,3) occ(47,6,7) occ(48,6,8) occ(56,6,2) occ(102,6,11) occ(107,6,5) occ(11,7,10) occ(18,7,4) occ(26,7,6) occ(30,7,8) occ(52,7,5) occ(60,7,1) occ(69,7,9) occ(73,7,7) occ(91,7,2) occ(109,7,3) occ(118,7,12) occ(9,8,12) occ(13,8,8) occ(16,8,2) occ(38,8,11) occ(46,8,9) occ(49,8,6) occ(50,8,7) occ(58,8,3) occ(77,8,4) occ(104,8,10) occ(111,8,1) occ(4,9,5) occ(40,9,9) occ(44,9,7) occ(51,9,4) occ(67,9,10) occ(75,9,6) occ(79,9,2) occ(89,9,1) occ(106,9,12) occ(113,9,3) occ(116,9,11) occ(6,10,7) occ(7,10,11) occ(14,10,1) occ(53,10,6) occ(61,10,10) occ(65,10,8) occ(85,10,4) occ(110,10,9) occ(115,10,5) occ(125,10,2) occ(10,11,4) occ(42,11,8) occ(57,11,9) occ(81,11,1) occ(87,11,2) occ(108,11,11) occ(114,11,10) occ(117,11,7) occ(121,11,3) occ(5,12,10) occ(8,12,6) occ(12,12,2) occ(55,12,7) occ(59,12,11) occ(63,12,9) occ(83,12,3) occ(112,12,8) occ(119,12,5) occ(123,12,1)
Optimization: -127
Answer: 17
occ(1,11,5) occ(1,5,6) occ(1,8,5) occ(1,7,11) occ(1,11,6) occ(1,6,10) occ(1,1,6) occ(1,2,3) occ(1,1,1) occ(2,10,3) occ(3,11,12) coverage(128) occ(21,1,5) occ(31,1,2) occ(37,1,3) occ(72,1,7) occ(84,1,11) occ(94,1,10) occ(99,1,4) occ(103,1,8) occ(19,2,7) occ(25,2,2) occ(33,2,4) occ(39,2,1) occ(78,2,5) occ(82,2,9) occ(88,2,10) occ(92,2,8) occ(101,2,6) occ(126,2,11) occ(23,3,4) occ(29,3,3) occ(35,3,2) occ(70,3,8) occ(74,3,6) occ(80,3,7) occ(86,3,12) occ(96,3,11) occ(97,3,5) occ(105,3,9) occ(122,3,10) occ(17,4,8) occ(22,4,5) occ(27,4,1) occ(34,4,11) occ(41,4,2) occ(68,4,6) occ(76,4,4) occ(90,4,9) occ(95,4,3) occ(100,4,10) occ(107,4,7) occ(124,4,12) occ(20,5,3) occ(28,5,7) occ(32,5,9) occ(45,5,5) occ(54,5,4) occ(62,5,2) occ(71,5,8) occ(93,5,1) occ(98,5,12) occ(120,5,11) occ(15,6,9) occ(18,6,1) occ(24,6,4) occ(36,6,12) occ(43,6,3) occ(47,6,7) occ(48,6,8) occ(56,6,2) occ(66,6,5) occ(102,6,11) occ(109,6,6) occ(11,7,10) occ(26,7,6) occ(30,7,8) occ(52,7,5) occ(60,7,1) occ(64,7,3) occ(69,7,9) occ(73,7,7) occ(91,7,2) occ(111,7,4) occ(118,7,12) occ(9,8,12) occ(13,8,8) occ(16,8,2) occ(38,8,11) occ(46,8,9) occ(49,8,6) occ(50,8,7) occ(58,8,3) occ(77,8,4) occ(104,8,10) occ(127,8,1) occ(4,9,5) occ(40,9,9) occ(44,9,7) occ(51,9,4) occ(67,9,10) occ(75,9,6) occ(79,9,2) occ(89,9,1) occ(106,9,12) occ(113,9,3) occ(116,9,11) occ(6,10,7) occ(7,10,11) occ(14,10,1) occ(53,10,6) occ(61,10,10) occ(65,10,8) occ(85,10,4) occ(110,10,9) occ(115,10,5) occ(125,10,2) occ(10,11,4) occ(42,11,8) occ(57,11,9) occ(81,11,1) occ(87,11,2) occ(108,11,11) occ(114,11,10) occ(117,11,7) occ(121,11,3) occ(5,12,10) occ(8,12,6) occ(12,12,2) occ(55,12,7) occ(59,12,11) occ(63,12,9) occ(83,12,3) occ(112,12,8) occ(119,12,5) occ(123,12,1)
Optimization: -128
Answer: 18
occ(1,11,5) occ(1,5,6) occ(1,8,5) occ(1,7,11) occ(1,11,6) occ(1,6,10) occ(1,1,6) occ(1,2,3) occ(1,1,1) occ(2,10,3) occ(3,11,12) coverage(129) occ(21,1,9) occ(22,1,4) occ(33,1,7) occ(81,1,5) occ(87,1,2) occ(106,1,10) occ(118,1,12) occ(122,1,8) occ(128,1,3) occ(17,2,8) occ(20,2,2) occ(23,2,11) occ(26,2,1) occ(31,2,9) occ(36,2,6) occ(79,2,7) occ(85,2,4) occ(104,2,12) occ(120,2,10) occ(126,2,5) occ(19,3,10) occ(24,3,3) occ(35,3,8) occ(38,3,4) occ(83,3,6) occ(89,3,1) occ(95,3,2) occ(108,3,9) occ(116,3,11) occ(124,3,7) occ(14,4,1) occ(15,4,7) occ(18,4,3) occ(25,4,12) occ(28,4,2) occ(29,4,8) occ(34,4,5) occ(77,4,6) occ(93,4,4) occ(102,4,11) occ(112,4,10) occ(12,5,3) occ(13,5,9) occ(27,5,10) occ(30,5,4) occ(37,5,7) occ(40,5,5) occ(53,5,11) occ(91,5,2) occ(97,5,1) occ(110,5,8) occ(114,5,12) occ(10,6,1) occ(11,6,11) occ(16,6,2) occ(32,6,6) occ(39,6,5) occ(42,6,3) occ(48,6,4) occ(55,6,9) occ(75,6,7) occ(96,6,8) occ(100,6,12) occ(8,7,3) occ(43,7,8) occ(44,7,1) occ(50,7,6) occ(51,7,12) occ(73,7,5) occ(80,7,9) occ(92,7,7) occ(98,7,10) occ(99,7,2) occ(115,7,4) occ(9,8,12) occ(41,8,6) occ(46,8,3) occ(52,8,4) occ(57,8,8) occ(62,8,7) occ(76,8,10) occ(82,8,11) occ(94,8,9) occ(111,8,1) occ(117,8,2) occ(6,9,2) occ(45,9,7) occ(49,9,11) occ(59,9,10) occ(60,9,9) occ(64,9,5) occ(71,9,4) occ(74,9,12) occ(78,9,8) occ(90,9,6) occ(101,9,1) occ(113,9,3) occ(7,10,11) occ(47,10,9) occ(54,10,5) occ(66,10,7) occ(72,10,10) occ(84,10,12) occ(88,10,8) occ(105,10,4) occ(109,10,2) occ(119,10,1) occ(125,10,6) occ(4,11,1) occ(58,11,8) occ(61,11,11) occ(65,11,7) occ(68,11,9) occ(69,11,3) occ(86,11,10) occ(103,11,2) occ(123,11,4) occ(5,12,10) occ(56,12,6) occ(63,12,9) occ(67,12,5) occ(70,12,11) occ(107,12,3) occ(121,12,2) occ(127,12,7)
Optimization: -129
Answer: 19
occ(1,11,5) occ(1,5,6) occ(1,8,5) occ(1,7,11) occ(1,11,6) occ(1,6,10) occ(1,1,6) occ(1,2,3) occ(1,1,1) occ(2,10,3) occ(3,11,12) coverage(130) occ(14,1,4) occ(32,1,3) occ(39,1,10) occ(47,1,8) occ(55,1,2) occ(56,1,5) occ(60,1,9) occ(64,1,11) occ(68,1,7) occ(16,2,2) occ(34,2,5) occ(37,2,12) occ(41,2,8) occ(49,2,6) occ(53,2,4) occ(58,2,7) occ(59,2,1) occ(66,2,9) occ(90,2,11) occ(11,3,12) occ(12,3,5) occ(30,3,2) occ(45,3,7) occ(54,3,4) occ(57,3,3) occ(62,3,10) occ(67,3,8) occ(70,3,6) occ(88,3,9) occ(129,3,11) occ(10,4,3) occ(13,4,10) occ(18,4,1) occ(35,4,11) occ(36,4,4) occ(43,4,9) occ(51,4,5) occ(61,4,2) occ(65,4,6) occ(72,4,8) occ(86,4,7) occ(92,4,12) occ(9,5,11) occ(17,5,7) occ(28,5,1) occ(46,5,2) occ(52,5,3) occ(63,5,4) occ(69,5,9) occ(84,5,5) occ(123,5,8) occ(127,5,10) occ(8,6,4) occ(15,6,9) occ(20,6,2) occ(25,6,6) occ(33,6,12) occ(38,6,5) occ(50,6,1) occ(73,6,8) occ(74,6,7) occ(82,6,3) occ(94,6,11) occ(6,7,6) occ(7,7,12) occ(19,7,8) occ(23,7,4) occ(26,7,2) occ(44,7,1) occ(48,7,3) occ(71,7,10) occ(76,7,5) occ(121,7,7) occ(125,7,9) occ(21,8,6) occ(22,8,3) occ(27,8,7) occ(31,8,11) occ(40,8,4) occ(75,8,9) occ(80,8,2) occ(81,8,8) occ(96,8,10) occ(118,8,1) occ(4,9,5) occ(5,9,11) occ(24,9,1) occ(29,9,9) occ(42,9,2) occ(77,9,7) occ(78,9,4) occ(83,9,6) occ(98,9,12) occ(102,9,10) occ(116,9,3) occ(119,9,8) occ(79,10,9) occ(85,10,8) occ(89,10,10) occ(95,10,11) occ(103,10,7) occ(104,10,12) occ(107,10,5) occ(112,10,6) occ(113,10,4) occ(120,10,2) occ(126,10,1) occ(91,11,8) occ(99,11,10) occ(100,11,11) occ(108,11,9) occ(111,11,2) occ(114,11,4) occ(117,11,7) occ(124,11,3) occ(87,12,9) occ(93,12,10) occ(97,12,12) occ(101,12,8) occ(105,12,6) occ(106,12,11) occ(109,12,4) occ(110,12,7) occ(115,12,5) occ(122,12,1) occ(128,12,2)
Optimization: -130
*** Info : (clingo): INTERRUPTED by signal!
SATISFIABLE

TIME LIMIT   : 1
Models       : 19+
  Optimum    : unknown
Optimization : -130
Calls        : 1
Time         : 300.000s (Solving: 295.06s 1st Model: 0.01s Unsat: 0.00s)
CPU Time     : 300.002s
